solution status: gap limit reached
objective value:                          39903.10658
y#2                                                 1 	(obj:5700)
y#19                                                1 	(obj:5700)
y#24                                                1 	(obj:5700)
y#25                                                1 	(obj:5700)
y#35                                                1 	(obj:5700)
y#38                                                1 	(obj:5700)
y#39                                                1 	(obj:5700)
x#1#24                                              1 	(obj:0.01224)
x#2#2                                               1 	(obj:0.06528)
x#3#25                                              1 	(obj:0.00969)
x#4#39                                              1 	(obj:0.03111)
x#5#35                                              1 	(obj:0.03706)
x#6#38                                              1 	(obj:0.05406)
x#7#25                                              1 	(obj:0.05678)
x#8#24                                              1 	(obj:0.04913)
x#9#24                                              1 	(obj:0.08211)
x#10#35                                             1 	(obj:0.0238)
x#11#25                                             1 	(obj:0.0272)
x#12#19                                             1 	(obj:0.07871)
x#13#35                                             1 	(obj:0.08075)
x#14#25                                             1 	(obj:0.02652)
x#15#38                                             1 	(obj:0.00714)
x#16#25                                             1 	(obj:0.01326)
x#17#24                                             1 	(obj:0.03876)
x#18#39                                             1 	(obj:0.03247)
x#19#38                                             1 	(obj:0.01666)
x#20#2                                              1 	(obj:0.02618)
x#21#25                                             1 	(obj:0.04046)
x#22#19                                             1 	(obj:0.06749)
x#23#19                                             1 	(obj:0.05168)
x#24#39                                             1 	(obj:0.02771)
x#25#25                                             1 	(obj:0.0238)
x#26#19                                             1 	(obj:0.01785)
x#27#39                                             1 	(obj:0.05933)
x#28#19                                             1 	(obj:0.06987)
x#29#35                                             1 	(obj:0.06205)
x#30#38                                             1 	(obj:0.17765)
x#31#35                                             1 	(obj:0.00782)
x#32#2                                              1 	(obj:0.02958)
x#33#2                                              1 	(obj:0.01122)
x#34#2                                              1 	(obj:0.02193)
x#35#2                                              1 	(obj:0.00697)
x#36#24                                             1 	(obj:0.02278)
x#37#2                                              1 	(obj:0.02363)
x#38#35                                             1 	(obj:0.02975)
x#39#24                                             1 	(obj:0.04165)
x#40#2                                              1 	(obj:0.03451)
x#41#19                                             1 	(obj:0.04607)
x#42#39                                             1 	(obj:0.02856)
x#43#24                                             1 	(obj:0.01139)
x#44#35                                             1 	(obj:0.02856)
x#45#2                                              1 	(obj:0.01275)
x#46#25                                             1 	(obj:0.01904)
x#47#35                                             1 	(obj:0.07837)
x#48#19                                             1 	(obj:0.01615)
x#49#19                                             1 	(obj:0.04267)
x#50#24                                             1 	(obj:0.01887)
x#51#39                                             1 	(obj:0.02329)
x#52#24                                             1 	(obj:0.05882)
x#53#24                                             1 	(obj:0.02805)
x#54#25                                             1 	(obj:0.01037)
x#55#35                                             1 	(obj:0.03604)
x#56#19                                             1 	(obj:0.00918)
x#57#19                                             1 	(obj:0.03825)
x#58#38                                             1 	(obj:0.07191)
x#59#19                                             1 	(obj:0.01326)
x#60#39                                             1 	(obj:0.03111)
x#61#35                                             1 	(obj:0.0034)
x#62#38                                             1 	(obj:0.04879)
x#63#39                                             1 	(obj:0.02023)
x#64#19                                             1 	(obj:0.01258)
x#65#38                                             1 	(obj:0.03111)
x#66#39                                             1 	(obj:0.04811)
x#67#24                                             1 	(obj:0.04131)
x#68#2                                              1 	(obj:0.02091)
x#69#2                                              1 	(obj:0.0646)
x#70#38                                             1 	(obj:0.01462)
x#71#2                                              1 	(obj:0.01955)
x#72#39                                             1 	(obj:0.02278)
x#73#25                                             1 	(obj:0.10387)
x#74#38                                             1 	(obj:0.05967)
x#75#38                                             1 	(obj:0.01768)
x#76#39                                             1 	(obj:0.16388)
x#77#38                                             1 	(obj:0.02771)
x#78#25                                             1 	(obj:0.06596)
x#79#35                                             1 	(obj:0.06137)
x#80#39                                             1 	(obj:0.0391)
